n = 50;
C = 285;
w = [381,368,205,437,336,421,492,388,12,473,272,59,60,381,246,87,438,162,265,113,247,269,349,378,339,455,395,283,178,473,43,301,305,133,344,35,315,227,360,387,124,405,249,441,409,436,25,124,222,432];
p = [247,85,157,174,190,163,149,390,244,101,473,355,103,68,398,261,234,71,426,22,128,149,487,172,161,489,482,379,300,420,173,405,354,155,345,400,173,166,192,132,362,463,173,466,100,352,11,289,311,376];
